Results/Experiment 1 Results/Existing Benchmark/RES_100/i-100-100-16.txt
solutions: 6 nodes: 12  modelTime: 138  solveTime: 23  totalTime: 172  modelSize: 8381  readTime: 11 matchingSize: 50
