Results/Experiment 2 Results/Existing Benchmark/i-100-100-16.lp
clingo version 5.4.0
Reading from tempSRTISolver.lp ...
Solving...
Answer: 1
matched(94,2) matched(38,3) matched(87,4) matched(80,5) matched(77,6) matched(12,7) matched(72,8) matched(100,9) matched(62,10) matched(31,11) matched(7,12) matched(39,13) matched(47,14) matched(33,15) matched(70,16) matched(21,17) matched(60,18) matched(79,19) matched(75,20) matched(17,21) matched(55,22) matched(25,23) matched(73,24) matched(23,25) matched(53,26) matched(69,27) matched(56,28) matched(66,29) matched(74,30) matched(11,31) matched(68,32) matched(15,33) matched(93,34) matched(58,35) matched(48,36) matched(64,37) matched(3,38) matched(13,39) matched(50,40) matched(57,41) matched(98,42) matched(76,43) matched(92,44) matched(61,45) matched(91,46) matched(14,47) matched(36,48) matched(84,49) matched(40,50) matched(65,51) matched(97,52) matched(26,53) matched(78,54) matched(22,55) matched(28,56) matched(41,57) matched(35,58) matched(99,59) matched(18,60) matched(45,61) matched(10,62) matched(88,63) matched(37,64) matched(51,65) matched(29,66) matched(83,67) matched(32,68) matched(27,69) matched(16,70) matched(82,71) matched(8,72) matched(24,73) matched(30,74) matched(20,75) matched(43,76) matched(6,77) matched(54,78) matched(19,79) matched(5,80) matched(85,81) matched(71,82) matched(67,83) matched(49,84) matched(81,85) matched(1,86) matched(4,87) matched(63,88) matched(96,89) matched(95,90) matched(46,91) matched(44,92) matched(34,93) matched(2,94) matched(90,95) matched(89,96) matched(52,97) matched(42,98) matched(59,99) matched(9,100) matched(86,1)
Optimization: 876
Answer: 2
matched(94,2) matched(38,3) matched(87,4) matched(80,5) matched(77,6) matched(12,7) matched(72,8) matched(100,9) matched(62,10) matched(31,11) matched(7,12) matched(39,13) matched(47,14) matched(33,15) matched(70,16) matched(21,17) matched(60,18) matched(79,19) matched(75,20) matched(17,21) matched(55,22) matched(25,23) matched(73,24) matched(23,25) matched(53,26) matched(69,27) matched(56,28) matched(66,29) matched(74,30) matched(11,31) matched(68,32) matched(15,33) matched(93,34) matched(58,35) matched(48,36) matched(64,37) matched(3,38) matched(13,39) matched(50,40) matched(57,41) matched(98,42) matched(76,43) matched(92,44) matched(61,45) matched(91,46) matched(14,47) matched(36,48) matched(84,49) matched(40,50) matched(65,51) matched(97,52) matched(26,53) matched(78,54) matched(22,55) matched(28,56) matched(41,57) matched(35,58) matched(99,59) matched(18,60) matched(45,61) matched(10,62) matched(96,63) matched(37,64) matched(51,65) matched(29,66) matched(83,67) matched(32,68) matched(27,69) matched(16,70) matched(82,71) matched(8,72) matched(24,73) matched(30,74) matched(20,75) matched(43,76) matched(6,77) matched(54,78) matched(19,79) matched(5,80) matched(85,81) matched(71,82) matched(67,83) matched(49,84) matched(81,85) matched(1,86) matched(4,87) matched(89,88) matched(88,89) matched(95,90) matched(46,91) matched(44,92) matched(34,93) matched(2,94) matched(90,95) matched(63,96) matched(52,97) matched(42,98) matched(59,99) matched(9,100) matched(86,1)
Optimization: 872
Answer: 3
matched(94,2) matched(38,3) matched(87,4) matched(80,5) matched(77,6) matched(12,7) matched(72,8) matched(100,9) matched(62,10) matched(31,11) matched(7,12) matched(39,13) matched(47,14) matched(33,15) matched(70,16) matched(21,17) matched(60,18) matched(79,19) matched(75,20) matched(17,21) matched(55,22) matched(25,23) matched(73,24) matched(23,25) matched(53,26) matched(69,27) matched(56,28) matched(66,29) matched(74,30) matched(11,31) matched(35,32) matched(15,33) matched(93,34) matched(32,35) matched(48,36) matched(64,37) matched(3,38) matched(13,39) matched(50,40) matched(58,41) matched(98,42) matched(76,43) matched(92,44) matched(61,45) matched(91,46) matched(14,47) matched(36,48) matched(84,49) matched(40,50) matched(65,51) matched(97,52) matched(26,53) matched(78,54) matched(22,55) matched(28,56) matched(68,57) matched(41,58) matched(99,59) matched(18,60) matched(45,61) matched(10,62) matched(96,63) matched(37,64) matched(51,65) matched(29,66) matched(83,67) matched(57,68) matched(27,69) matched(16,70) matched(82,71) matched(8,72) matched(24,73) matched(30,74) matched(20,75) matched(43,76) matched(6,77) matched(54,78) matched(19,79) matched(5,80) matched(85,81) matched(71,82) matched(67,83) matched(49,84) matched(81,85) matched(1,86) matched(4,87) matched(89,88) matched(88,89) matched(95,90) matched(46,91) matched(44,92) matched(34,93) matched(2,94) matched(90,95) matched(63,96) matched(52,97) matched(42,98) matched(59,99) matched(9,100) matched(86,1)
Optimization: 854
OPTIMUM FOUND

Models       : 3
  Optimum    : yes
Optimization : 854
Calls        : 1
Time         : 90.358s (Solving: 14.22s 1st Model: 2.62s Unsat: 8.53s)
CPU Time     : 90.314s
